
     Program PWSCF v.7.5 starts on  7Sep2026 at 15: 1: 1 

     This program is part of the open-source Quantum ESPRESSO suite
     for quantum simulation of materials; please cite
         "P. Giannozzi et al., J. Phys.:Condens. Matter 21 395502 (2009);
         "P. Giannozzi et al., J. Phys.:Condens. Matter 29 465901 (2017);
         "P. Giannozzi et al., J. Chem. Phys. 152 154105 (2020);
          URL http://www.quantum-espresso.org", 
     in publications or presentations arising from this work. More details at
     http://www.quantum-espresso.org/quote

     Parallel version (MPI & OpenMP), running on       2 processor cores
     Number of MPI processes:                 1
     Threads/MPI process:                     2

     MPI processes distributed on     1 nodes
     597 MiB available memory on the printing compute node when the environment starts

     Reading input from silicon.scf.in

     Current dimensions of program PWSCF are:
     Max number of different atomic species (ntypx) = 10
     Max number of k-points (npk) =  40000
     Max angular momentum in pseudopotentials (lmaxx) =  4

     Subspace diagonalization in iterative solution of the eigenvalue problem:
     a serial algorithm will be used


     G-vector sticks info
     --------------------
     sticks:   dense  smooth     PW     G-vecs:    dense   smooth      PW
     Sum         295     295     97                 3287     3287     645

     Using Slab Decomposition



     bravais-lattice index     =            2
     lattice parameter (alat)  =      10.2600  a.u.
     unit-cell volume          =     270.0114 (a.u.)^3
     number of atoms/cell      =            2
     number of atomic types    =            1
     number of electrons       =         8.00
     number of Kohn-Sham states=            4
     kinetic-energy cutoff     =      20.0000  Ry
     charge density cutoff     =      80.0000  Ry
     scf convergence threshold =      1.0E-08
     mixing beta               =       0.7000
     number of iterations used =            8  plain     mixing
     Exchange-correlation= SLA  PZ   NOGX NOGC
                           (   1   1   0   0   0   0   0)

     celldm(1)=  10.260000  celldm(2)=   0.000000  celldm(3)=   0.000000
     celldm(4)=   0.000000  celldm(5)=   0.000000  celldm(6)=   0.000000

     crystal axes: (cart. coord. in units of alat)
               a(1) = (  -0.500000   0.000000   0.500000 )  
               a(2) = (   0.000000   0.500000   0.500000 )  
               a(3) = (  -0.500000   0.500000   0.000000 )  

     reciprocal axes: (cart. coord. in units 2 pi/alat)
               b(1) = ( -1.000000 -1.000000  1.000000 )  
               b(2) = (  1.000000  1.000000  1.000000 )  
               b(3) = ( -1.000000  1.000000 -1.000000 )  


     PseudoPot. # 1 for Si read from file:
     ./pseudo/Si.pz-vbc.UPF
     MD5 check sum: 9f25e6ff280f3123e9b3a84715b2e9c9
     Pseudo is Norm-conserving, Zval =  4.0
     Generated by new atomic code, or converted to UPF format
     Using radial grid of  431 points,  2 beta functions with: 
                l(1) =   0
                l(2) =   1

     atomic species   valence    mass     pseudopotential
     Si                4.00    28.08600     Si( 1.00)

     48 Sym. Ops., with inversion, found (24 have fractional translation)



   Cartesian axes

     site n.     atom                  positions (alat units)
         1        Si     tau(   1) = (   0.0000000   0.0000000   0.0000000  )
         2        Si     tau(   2) = (   0.2500000   0.2500000   0.2500000  )

     number of k points=    10
                       cart. coord. in units 2pi/alat
        k(    1) = (  -0.1250000   0.1250000   0.1250000), wk =   0.0625000
        k(    2) = (  -0.3750000   0.3750000  -0.1250000), wk =   0.1875000
        k(    3) = (   0.3750000  -0.3750000   0.6250000), wk =   0.1875000
        k(    4) = (   0.1250000  -0.1250000   0.3750000), wk =   0.1875000
        k(    5) = (  -0.1250000   0.6250000   0.1250000), wk =   0.1875000
        k(    6) = (   0.6250000  -0.1250000   0.8750000), wk =   0.3750000
        k(    7) = (   0.3750000   0.1250000   0.6250000), wk =   0.3750000
        k(    8) = (  -0.1250000  -0.8750000   0.1250000), wk =   0.1875000
        k(    9) = (  -0.3750000   0.3750000   0.3750000), wk =   0.0625000
        k(   10) = (   0.3750000  -0.3750000   1.1250000), wk =   0.1875000

     Dense  grid:     3287 G-vectors     FFT dimensions: (  24,  24,  24)

     Estimated max dynamical RAM per process >       2.80 MB

     Initial potential from superposition of free atoms

     starting charge       7.9990, renormalised to       8.0000
     Starting wfcs are    8 randomized atomic wfcs

     total cpu time spent up to now is        0.5 secs

     per-process dynamical memory:     8.2 Mb

     Self-consistent Calculation

     iteration #  1     ecut=    20.00 Ry     beta= 0.70
     Davidson diagonalization with overlap
     ethr =  1.00E-02,  avg # of iterations =  2.0

     Threshold (ethr) on eigenvalues was too large:
     Diagonalizing with lowered threshold

     Davidson diagonalization with overlap
     ethr =  6.71E-04,  avg # of iterations =  1.0

     total cpu time spent up to now is        0.7 secs

     total energy              =     -15.84398257 Ry
     estimated scf accuracy    <       0.05904068 Ry

     iteration #  2     ecut=    20.00 Ry     beta= 0.70
     Davidson diagonalization with overlap
     ethr =  7.38E-04,  avg # of iterations =  1.0

     total cpu time spent up to now is        0.8 secs

     total energy              =     -15.84691013 Ry
     estimated scf accuracy    <       0.00220370 Ry

     iteration #  3     ecut=    20.00 Ry     beta= 0.70
     Davidson diagonalization with overlap
     ethr =  2.75E-05,  avg # of iterations =  2.4

     total cpu time spent up to now is        0.9 secs

     total energy              =     -15.84734000 Ry
     estimated scf accuracy    <       0.00007013 Ry

     iteration #  4     ecut=    20.00 Ry     beta= 0.70
     Davidson diagonalization with overlap
     ethr =  8.77E-07,  avg # of iterations =  3.0

     total cpu time spent up to now is        1.0 secs

     total energy              =     -15.84736407 Ry
     estimated scf accuracy    <       0.00000198 Ry

     iteration #  5     ecut=    20.00 Ry     beta= 0.70
     Davidson diagonalization with overlap
     ethr =  2.47E-08,  avg # of iterations =  3.7

     total cpu time spent up to now is        1.1 secs

     total energy              =     -15.84736534 Ry
     estimated scf accuracy    <       0.00000013 Ry

     iteration #  6     ecut=    20.00 Ry     beta= 0.70
     Davidson diagonalization with overlap
     ethr =  1.61E-09,  avg # of iterations =  2.3

     total cpu time spent up to now is        1.2 secs

     End of self-consistent calculation

          k =-0.1250 0.1250 0.1250 (   408 PWs)   bands (ev):

    -5.6748   4.4626   5.7727   5.7727

          k =-0.3750 0.3750-0.1250 (   407 PWs)   bands (ev):

    -4.6267   1.4386   3.7374   5.2853

          k = 0.3750-0.3750 0.6250 (   405 PWs)   bands (ev):

    -3.4478  -0.6972   3.7714   4.4925

          k = 0.1250-0.1250 0.3750 (   400 PWs)   bands (ev):

    -5.1365   2.8432   4.7374   4.8149

          k =-0.1250 0.6250 0.1250 (   410 PWs)   bands (ev):

    -4.0849   1.1400   3.3738   3.8426

          k = 0.6250-0.1250 0.8750 (   406 PWs)   bands (ev):

    -2.4006  -0.8465   1.9672   3.0797

          k = 0.3750 0.1250 0.6250 (   411 PWs)   bands (ev):

    -3.6557   0.2292   2.7198   4.1206

          k =-0.1250-0.8750 0.1250 (   415 PWs)   bands (ev):

    -2.5831  -0.7427   2.5995   3.3641

          k =-0.3750 0.3750 0.3750 (   407 PWs)   bands (ev):

    -4.1794   0.1065   4.9703   4.9703

          k = 0.3750-0.3750 1.1250 (   408 PWs)   bands (ev):

    -2.9450  -0.5709   2.0404   4.1658

     highest occupied level (ev):     5.7727

!    total energy              =     -15.84736537 Ry
     estimated scf accuracy    <          1.2E-10 Ry

     The total energy is the sum of the following terms:
     one-electron contribution =       4.65833772 Ry
     hartree contribution      =       1.09197507 Ry
     xc contribution           =      -4.79674855 Ry
     ewald contribution        =     -16.80092959 Ry

     convergence has been achieved in   6 iterations

     Writing all to output data dir ./tmp/silicon.save/ :
     XML data file, charge density, pseudopotentials, collected wavefunctions

     init_run     :      0.58s CPU      0.44s WALL (       1 calls)
     electrons    :      1.08s CPU      0.68s WALL (       1 calls)

     Called by init_run:
     wfcinit      :      0.37s CPU      0.25s WALL (       1 calls)
     potinit      :      0.01s CPU      0.01s WALL (       1 calls)
     hinit0       :      0.20s CPU      0.18s WALL (       1 calls)

     Called by electrons:
     c_bands      :      0.86s CPU      0.54s WALL (       7 calls)
     sum_band     :      0.19s CPU      0.12s WALL (       7 calls)
     v_of_rho     :      0.01s CPU      0.00s WALL (       7 calls)
     mix_rho      :      0.01s CPU      0.01s WALL (       7 calls)

     Called by c_bands:
     init_us_2    :      0.02s CPU      0.01s WALL (     150 calls)
     cegterg      :      0.84s CPU      0.53s WALL (      70 calls)

     Called by *egterg:
     cdiaghg      :      0.01s CPU      0.02s WALL (     214 calls)
     h_psi        :      1.15s CPU      0.73s WALL (     234 calls)
     g_psi        :      0.00s CPU      0.00s WALL (     154 calls)

     Called by h_psi:
     h_psi:calbec :      0.01s CPU      0.02s WALL (     234 calls)
     vloc_psi     :      1.12s CPU      0.69s WALL (     234 calls)
                                        0.00s GPU  (     234 calls)
     add_vuspsi   :      0.00s CPU      0.00s WALL (     234 calls)

     General routines
     calbec       :      0.01s CPU      0.02s WALL (     234 calls)
     fft          :      0.18s CPU      0.17s WALL (      21 calls)
     ffts         :      0.00s CPU      0.00s WALL (       7 calls)
     fftw         :      1.23s CPU      0.76s WALL (    1994 calls)

     Parallel routines

     PWSCF        :      1.76s CPU      1.21s WALL


   This run was terminated on:  15: 1: 2   7Sep2026            

=------------------------------------------------------------------------------=
   JOB DONE.
=------------------------------------------------------------------------------=
